instances/knapsack/discrete/knapsack_60_18.kp
40344
60
280

27 2.7 89
79 7.9 6
53 5.3 7
98 9.8 27
71 7.1 33
9 0.9 36
40 4.0 61
15 1.5 71
8 0.8 38
49 4.9 58
79 7.9 66
74 7.4 46
31 3.1 90
95 9.5 25
72 7.2 94
100 10.0 39
72 7.2 85
99 9.9 33
56 5.6 2
33 3.3 49
44 4.4 25
19 1.9 66
19 1.9 87
50 5.0 11
20 2.0 36
59 5.9 86
29 2.9 31
71 7.1 59
81 8.1 57
2 0.2 84
1 0.1 92
63 6.3 55
67 6.7 91
44 4.4 78
75 7.5 63
56 5.6 100
7 0.7 44
24 2.4 78
55 5.5 58
78 7.8 75
34 3.4 27
93 9.3 93
65 6.5 41
1 0.1 90
38 3.8 94
66 6.6 54
89 8.9 24
45 4.5 8
2 0.2 88
67 6.7 81
26 2.6 42
23 2.3 58
24 2.4 38
59 5.9 32
8 0.8 43
43 4.3 45
92 9.2 42
38 3.8 59
27 2.7 79
85 8.5 62

37148
273

[2.78 2.03 4.53 3.92 3.5 1.13 1.02 1.07 2.54 0.01 0.04 3.84 0.96 3.68 0.94 1.1 1.24 1.09 3.45 0.56 3.57 2.43 4.04 3.59 2.47 2.48 0.27 0.06 4.2 0.36 1.04 3.42 4.09 0.66 2.92 3.04 4.51 0.6 1.05 0.72 3.69 3.21 1.68 1.59 0.28 0.72 3.46 3.58 2.02 3.29 0.87 4.53 2.24 1.75 3.3 3.26 3.5 1.63 1.43 3.99]

[1 37 59 68 49 23 30 37 98 91 53 64 73 21 22 78 82 1 46 51 66 21 21 60 66 25 31 65 51 52 7 93 29 18 29 74 21 74 69 12 24 71 99 11 12 44 91 75 48 53 68 5 82 33 54 69 10 36 45 75]
