instances/knapsack/discrete/knapsack_60_18.lp
\ Model knapsack_60_18
\ LP format - for model browsing. Use MPS format to capture full model detail.
\ Signature: 0x44a844bc7146bef8
Minimize
  - 76 x[0] - 5 x[1] - 90 x[2] - 74 x[3] - 36 x[4] - 75 x[5] - 48 x[6]
   - 74 x[7] - 57 x[8] - 13 x[9] - 53 x[10] - 45 x[11] - 97 x[12]
   - 28 x[13] - 45 x[14] - 34 x[15] - 64 x[16] - 48 x[17] - 49 x[18]
   - 100 x[19] - 92 x[20] - 77 x[21] - 94 x[22] - 54 x[23] - 95 x[24]
   - 89 x[25] - 74 x[26] - 90 x[27] - 12 x[28] - 31 x[29] - 59 x[30]
   - 54 x[31] - 38 x[32] - 81 x[33] - 42 x[34] - 23 x[35] - 31 x[36]
   - 97 x[37] - 37 x[38] - 6 x[39] - 66 x[40] - 40 x[41] - 8 x[42] - x[43]
   - 25 x[44] - 49 x[45] - 87 x[46] - 31 x[47] - 87 x[48] - 32 x[49]
   - 33 x[50] - 25 x[51] - 53 x[52] - 55 x[53] - 62 x[54] - 20 x[55]
   - 97 x[56] - 98 x[57] - 82 x[58] - 29 x[59]
Subject To
 primal_upper: 26 x[0] + 46 x[1] + 32 x[2] + 93 x[3] + 86 x[4] + 100 x[5]
   + 39 x[6] + 78 x[7] + 59 x[8] + 92 x[9] + 86 x[10] + 57 x[11] + 78 x[12]
   + 54 x[13] + 27 x[14] + 35 x[15] + 63 x[16] + 62 x[17] + 71 x[18]
   + 88 x[19] + 3 x[20] + 94 x[21] + 42 x[22] + 45 x[23] + 3 x[24]
   + 14 x[25] + 44 x[26] + 46 x[27] + 84 x[28] + 53 x[29] + 4 x[30]
   + 30 x[31] + 42 x[32] + 23 x[33] + 74 x[34] + 27 x[35] + 58 x[36]
   + 15 x[37] + 50 x[38] + 37 x[39] + 17 x[40] + 88 x[41] + 72 x[42]
   + 100 x[43] + 85 x[44] + 25 x[45] + 64 x[46] + 84 x[47] + 49 x[48]
   + 6 x[49] + 33 x[50] + 2 x[51] + 71 x[52] + 54 x[53] + 11 x[54]
   + 6 x[55] + 87 x[56] + 29 x[57] + 62 x[58] + 4 x[59] + 2.6 r[0]
   + 4.6 r[1] + 3.2 r[2] + 9.3 r[3] + 8.6 r[4] + 10 r[5] + 3.9 r[6]
   + 7.8 r[7] + 5.9 r[8] + 9.2 r[9] + 8.6 r[10] + 5.7 r[11] + 7.8 r[12]
   + 5.4 r[13] + 2.7 r[14] + 3.5 r[15] + 6.3 r[16] + 6.2 r[17] + 7.1 r[18]
   + 8.8 r[19] + 0.3 r[20] + 9.4 r[21] + 4.2 r[22] + 4.5 r[23] + 0.3 r[24]
   + 1.4 r[25] + 4.4 r[26] + 4.6 r[27] + 8.4 r[28] + 5.3 r[29] + 0.4 r[30]
   + 3 r[31] + 4.2 r[32] + 2.3 r[33] + 7.4 r[34] + 2.7 r[35] + 5.8 r[36]
   + 1.5 r[37] + 5 r[38] + 3.7 r[39] + 1.7 r[40] + 8.8 r[41] + 7.2 r[42]
   + 10 r[43] + 8.5 r[44] + 2.5 r[45] + 6.4 r[46] + 8.4 r[47] + 4.9 r[48]
   + 0.6 r[49] + 3.3 r[50] + 0.2 r[51] + 7.1 r[52] + 5.4 r[53] + 1.1 r[54]
   + 0.6 r[55] + 8.7 r[56] + 2.9 r[57] + 6.2 r[58] + 0.4 r[59] <= 286
 primal_lower: 2.043904706198406 x[0] + 2.350352101618056 x[1]
   + 4.062793114433515 x[2] + 3.353309404857629 x[3]
   + 3.757834788386154 x[4] + 2.066578858205778 x[5]
   + 1.592912921349485 x[6] + 2.643278345253438 x[7]
   + 0.7894539125775145 x[8] + 0.5328469682158931 x[9]
   + 3.500559168976003 x[10] + 4.783010228227177 x[11]
   + 2.11321882228488 x[12] + 0.6240158474501409 x[13]
   + 1.523205764988583 x[14] + 3.429286396767487 x[15]
   + 3.889764441248369 x[16] + 2.102494032768904 x[17]
   + 4.080848013204763 x[18] + 3.17816199774003 x[19]
   + 2.143012113658977 x[20] + 0.6085845297179412 x[21]
   + 2.760872711871369 x[22] + 1.207948463605877 x[23]
   + 1.958465656557449 x[24] + 3.058976040933417 x[25]
   + 2.796093799745924 x[26] + 4.397760501550784 x[27]
   + 3.039591871677554 x[28] + 3.44724250427103 x[29]
   + 3.961889800795931 x[30] + 4.066603012327642 x[31]
   + 4.694065967310204 x[32] + 3.045393050051926 x[33]
   + 1.430374497186804 x[34] + 3.356826796605001 x[35]
   + 4.750082238070826 x[36] + 0.8939656905541605 x[37]
   + 2.744115445844819 x[38] + 1.893530588329985 x[39]
   + 1.712642876054063 x[40] + 0.4809260005679817 x[41]
   + 0.8845460376257241 x[42] + 2.632886124405916 x[43]
   + 3.954730206503251 x[44] + 0.0810250492163858 x[45]
   + 1.565677436584507 x[46] + 2.750669791019007 x[47]
   + 2.80558893255021 x[48] + 3.578650060725726 x[49]
   + 3.85424217656708 x[50] + 0.1207026862421145 x[51]
   + 4.254971567533238 x[52] + 2.758281919119344 x[53]
   + 1.330653686917717 x[54] + 0.4112955687846231 x[55]
   + 3.274610616013504 x[56] + 1.956090848987661 x[57]
   + 4.397196460743105 x[58] + 1.303132480770355 x[59] + 47 u[0] + 23 u[1]
   + 49 u[2] + 34 u[3] + 59 u[4] + 73 u[5] + 68 u[6] + 71 u[7] + 36 u[8]
   + 33 u[9] + 83 u[10] + 62 u[11] + 23 u[12] + 11 u[13] + 28 u[14]
   + 48 u[15] + 80 u[16] + 23 u[17] + 64 u[18] + 45 u[19] + 48 u[20]
   + 43 u[21] + 75 u[22] + 38 u[23] + 32 u[24] + 11 u[25] + 77 u[26]
   + 71 u[27] + 9 u[28] + 34 u[29] + 49 u[30] + 47 u[31] + 11 u[32]
   + 68 u[33] + 75 u[34] + 100 u[35] + 47 u[36] + 76 u[37] + 79 u[38]
   + 70 u[39] + 50 u[40] + u[41] + 81 u[42] + 57 u[43] + 50 u[44]
   + 66 u[45] + 57 u[46] + 89 u[47] + 38 u[48] + 31 u[49] + 42 u[50]
   + 51 u[51] + 56 u[52] + 47 u[53] + 12 u[54] + 27 u[55] + 80 u[56]
   + 90 u[57] + 83 u[58] + u[59] <= 43664
 mccormick1[0]: - u[0] + r[0] <= 0
 mccormick1[1]: - u[1] + r[1] <= 0
 mccormick1[2]: - u[2] + r[2] <= 0
 mccormick1[3]: - u[3] + r[3] <= 0
 mccormick1[4]: - u[4] + r[4] <= 0
 mccormick1[5]: - u[5] + r[5] <= 0
 mccormick1[6]: - u[6] + r[6] <= 0
 mccormick1[7]: - u[7] + r[7] <= 0
 mccormick1[8]: - u[8] + r[8] <= 0
 mccormick1[9]: - u[9] + r[9] <= 0
 mccormick1[10]: - u[10] + r[10] <= 0
 mccormick1[11]: - u[11] + r[11] <= 0
 mccormick1[12]: - u[12] + r[12] <= 0
 mccormick1[13]: - u[13] + r[13] <= 0
 mccormick1[14]: - u[14] + r[14] <= 0
 mccormick1[15]: - u[15] + r[15] <= 0
 mccormick1[16]: - u[16] + r[16] <= 0
 mccormick1[17]: - u[17] + r[17] <= 0
 mccormick1[18]: - u[18] + r[18] <= 0
 mccormick1[19]: - u[19] + r[19] <= 0
 mccormick1[20]: - u[20] + r[20] <= 0
 mccormick1[21]: - u[21] + r[21] <= 0
 mccormick1[22]: - u[22] + r[22] <= 0
 mccormick1[23]: - u[23] + r[23] <= 0
 mccormick1[24]: - u[24] + r[24] <= 0
 mccormick1[25]: - u[25] + r[25] <= 0
 mccormick1[26]: - u[26] + r[26] <= 0
 mccormick1[27]: - u[27] + r[27] <= 0
 mccormick1[28]: - u[28] + r[28] <= 0
 mccormick1[29]: - u[29] + r[29] <= 0
 mccormick1[30]: - u[30] + r[30] <= 0
 mccormick1[31]: - u[31] + r[31] <= 0
 mccormick1[32]: - u[32] + r[32] <= 0
 mccormick1[33]: - u[33] + r[33] <= 0
 mccormick1[34]: - u[34] + r[34] <= 0
 mccormick1[35]: - u[35] + r[35] <= 0
 mccormick1[36]: - u[36] + r[36] <= 0
 mccormick1[37]: - u[37] + r[37] <= 0
 mccormick1[38]: - u[38] + r[38] <= 0
 mccormick1[39]: - u[39] + r[39] <= 0
 mccormick1[40]: - u[40] + r[40] <= 0
 mccormick1[41]: - u[41] + r[41] <= 0
 mccormick1[42]: - u[42] + r[42] <= 0
 mccormick1[43]: - u[43] + r[43] <= 0
 mccormick1[44]: - u[44] + r[44] <= 0
 mccormick1[45]: - u[45] + r[45] <= 0
 mccormick1[46]: - u[46] + r[46] <= 0
 mccormick1[47]: - u[47] + r[47] <= 0
 mccormick1[48]: - u[48] + r[48] <= 0
 mccormick1[49]: - u[49] + r[49] <= 0
 mccormick1[50]: - u[50] + r[50] <= 0
 mccormick1[51]: - u[51] + r[51] <= 0
 mccormick1[52]: - u[52] + r[52] <= 0
 mccormick1[53]: - u[53] + r[53] <= 0
 mccormick1[54]: - u[54] + r[54] <= 0
 mccormick1[55]: - u[55] + r[55] <= 0
 mccormick1[56]: - u[56] + r[56] <= 0
 mccormick1[57]: - u[57] + r[57] <= 0
 mccormick1[58]: - u[58] + r[58] <= 0
 mccormick1[59]: - u[59] + r[59] <= 0
 mccormick2[0]: - x[0] + r[0] <= 0
 mccormick2[1]: - x[1] + r[1] <= 0
 mccormick2[2]: - x[2] + r[2] <= 0
 mccormick2[3]: - x[3] + r[3] <= 0
 mccormick2[4]: - x[4] + r[4] <= 0
 mccormick2[5]: - x[5] + r[5] <= 0
 mccormick2[6]: - x[6] + r[6] <= 0
 mccormick2[7]: - x[7] + r[7] <= 0
 mccormick2[8]: - x[8] + r[8] <= 0
 mccormick2[9]: - x[9] + r[9] <= 0
 mccormick2[10]: - x[10] + r[10] <= 0
 mccormick2[11]: - x[11] + r[11] <= 0
 mccormick2[12]: - x[12] + r[12] <= 0
 mccormick2[13]: - x[13] + r[13] <= 0
 mccormick2[14]: - x[14] + r[14] <= 0
 mccormick2[15]: - x[15] + r[15] <= 0
 mccormick2[16]: - x[16] + r[16] <= 0
 mccormick2[17]: - x[17] + r[17] <= 0
 mccormick2[18]: - x[18] + r[18] <= 0
 mccormick2[19]: - x[19] + r[19] <= 0
 mccormick2[20]: - x[20] + r[20] <= 0
 mccormick2[21]: - x[21] + r[21] <= 0
 mccormick2[22]: - x[22] + r[22] <= 0
 mccormick2[23]: - x[23] + r[23] <= 0
 mccormick2[24]: - x[24] + r[24] <= 0
 mccormick2[25]: - x[25] + r[25] <= 0
 mccormick2[26]: - x[26] + r[26] <= 0
 mccormick2[27]: - x[27] + r[27] <= 0
 mccormick2[28]: - x[28] + r[28] <= 0
 mccormick2[29]: - x[29] + r[29] <= 0
 mccormick2[30]: - x[30] + r[30] <= 0
 mccormick2[31]: - x[31] + r[31] <= 0
 mccormick2[32]: - x[32] + r[32] <= 0
 mccormick2[33]: - x[33] + r[33] <= 0
 mccormick2[34]: - x[34] + r[34] <= 0
 mccormick2[35]: - x[35] + r[35] <= 0
 mccormick2[36]: - x[36] + r[36] <= 0
 mccormick2[37]: - x[37] + r[37] <= 0
 mccormick2[38]: - x[38] + r[38] <= 0
 mccormick2[39]: - x[39] + r[39] <= 0
 mccormick2[40]: - x[40] + r[40] <= 0
 mccormick2[41]: - x[41] + r[41] <= 0
 mccormick2[42]: - x[42] + r[42] <= 0
 mccormick2[43]: - x[43] + r[43] <= 0
 mccormick2[44]: - x[44] + r[44] <= 0
 mccormick2[45]: - x[45] + r[45] <= 0
 mccormick2[46]: - x[46] + r[46] <= 0
 mccormick2[47]: - x[47] + r[47] <= 0
 mccormick2[48]: - x[48] + r[48] <= 0
 mccormick2[49]: - x[49] + r[49] <= 0
 mccormick2[50]: - x[50] + r[50] <= 0
 mccormick2[51]: - x[51] + r[51] <= 0
 mccormick2[52]: - x[52] + r[52] <= 0
 mccormick2[53]: - x[53] + r[53] <= 0
 mccormick2[54]: - x[54] + r[54] <= 0
 mccormick2[55]: - x[55] + r[55] <= 0
 mccormick2[56]: - x[56] + r[56] <= 0
 mccormick2[57]: - x[57] + r[57] <= 0
 mccormick2[58]: - x[58] + r[58] <= 0
 mccormick2[59]: - x[59] + r[59] <= 0
 mccormick3[0]: x[0] + u[0] - r[0] <= 1
 mccormick3[1]: x[1] + u[1] - r[1] <= 1
 mccormick3[2]: x[2] + u[2] - r[2] <= 1
 mccormick3[3]: x[3] + u[3] - r[3] <= 1
 mccormick3[4]: x[4] + u[4] - r[4] <= 1
 mccormick3[5]: x[5] + u[5] - r[5] <= 1
 mccormick3[6]: x[6] + u[6] - r[6] <= 1
 mccormick3[7]: x[7] + u[7] - r[7] <= 1
 mccormick3[8]: x[8] + u[8] - r[8] <= 1
 mccormick3[9]: x[9] + u[9] - r[9] <= 1
 mccormick3[10]: x[10] + u[10] - r[10] <= 1
 mccormick3[11]: x[11] + u[11] - r[11] <= 1
 mccormick3[12]: x[12] + u[12] - r[12] <= 1
 mccormick3[13]: x[13] + u[13] - r[13] <= 1
 mccormick3[14]: x[14] + u[14] - r[14] <= 1
 mccormick3[15]: x[15] + u[15] - r[15] <= 1
 mccormick3[16]: x[16] + u[16] - r[16] <= 1
 mccormick3[17]: x[17] + u[17] - r[17] <= 1
 mccormick3[18]: x[18] + u[18] - r[18] <= 1
 mccormick3[19]: x[19] + u[19] - r[19] <= 1
 mccormick3[20]: x[20] + u[20] - r[20] <= 1
 mccormick3[21]: x[21] + u[21] - r[21] <= 1
 mccormick3[22]: x[22] + u[22] - r[22] <= 1
 mccormick3[23]: x[23] + u[23] - r[23] <= 1
 mccormick3[24]: x[24] + u[24] - r[24] <= 1
 mccormick3[25]: x[25] + u[25] - r[25] <= 1
 mccormick3[26]: x[26] + u[26] - r[26] <= 1
 mccormick3[27]: x[27] + u[27] - r[27] <= 1
 mccormick3[28]: x[28] + u[28] - r[28] <= 1
 mccormick3[29]: x[29] + u[29] - r[29] <= 1
 mccormick3[30]: x[30] + u[30] - r[30] <= 1
 mccormick3[31]: x[31] + u[31] - r[31] <= 1
 mccormick3[32]: x[32] + u[32] - r[32] <= 1
 mccormick3[33]: x[33] + u[33] - r[33] <= 1
 mccormick3[34]: x[34] + u[34] - r[34] <= 1
 mccormick3[35]: x[35] + u[35] - r[35] <= 1
 mccormick3[36]: x[36] + u[36] - r[36] <= 1
 mccormick3[37]: x[37] + u[37] - r[37] <= 1
 mccormick3[38]: x[38] + u[38] - r[38] <= 1
 mccormick3[39]: x[39] + u[39] - r[39] <= 1
 mccormick3[40]: x[40] + u[40] - r[40] <= 1
 mccormick3[41]: x[41] + u[41] - r[41] <= 1
 mccormick3[42]: x[42] + u[42] - r[42] <= 1
 mccormick3[43]: x[43] + u[43] - r[43] <= 1
 mccormick3[44]: x[44] + u[44] - r[44] <= 1
 mccormick3[45]: x[45] + u[45] - r[45] <= 1
 mccormick3[46]: x[46] + u[46] - r[46] <= 1
 mccormick3[47]: x[47] + u[47] - r[47] <= 1
 mccormick3[48]: x[48] + u[48] - r[48] <= 1
 mccormick3[49]: x[49] + u[49] - r[49] <= 1
 mccormick3[50]: x[50] + u[50] - r[50] <= 1
 mccormick3[51]: x[51] + u[51] - r[51] <= 1
 mccormick3[52]: x[52] + u[52] - r[52] <= 1
 mccormick3[53]: x[53] + u[53] - r[53] <= 1
 mccormick3[54]: x[54] + u[54] - r[54] <= 1
 mccormick3[55]: x[55] + u[55] - r[55] <= 1
 mccormick3[56]: x[56] + u[56] - r[56] <= 1
 mccormick3[57]: x[57] + u[57] - r[57] <= 1
 mccormick3[58]: x[58] + u[58] - r[58] <= 1
 mccormick3[59]: x[59] + u[59] - r[59] <= 1
Bounds
Binaries
 x[0] x[1] x[2] x[3] x[4] x[5] x[6] x[7] x[8] x[9] x[10] x[11] x[12] x[13]
 x[14] x[15] x[16] x[17] x[18] x[19] x[20] x[21] x[22] x[23] x[24] x[25]
 x[26] x[27] x[28] x[29] x[30] x[31] x[32] x[33] x[34] x[35] x[36] x[37]
 x[38] x[39] x[40] x[41] x[42] x[43] x[44] x[45] x[46] x[47] x[48] x[49]
 x[50] x[51] x[52] x[53] x[54] x[55] x[56] x[57] x[58] x[59] u[0] u[1] u[2]
 u[3] u[4] u[5] u[6] u[7] u[8] u[9] u[10] u[11] u[12] u[13] u[14] u[15]
 u[16] u[17] u[18] u[19] u[20] u[21] u[22] u[23] u[24] u[25] u[26] u[27]
 u[28] u[29] u[30] u[31] u[32] u[33] u[34] u[35] u[36] u[37] u[38] u[39]
 u[40] u[41] u[42] u[43] u[44] u[45] u[46] u[47] u[48] u[49] u[50] u[51]
 u[52] u[53] u[54] u[55] u[56] u[57] u[58] u[59] r[0] r[1] r[2] r[3] r[4]
 r[5] r[6] r[7] r[8] r[9] r[10] r[11] r[12] r[13] r[14] r[15] r[16] r[17]
 r[18] r[19] r[20] r[21] r[22] r[23] r[24] r[25] r[26] r[27] r[28] r[29]
 r[30] r[31] r[32] r[33] r[34] r[35] r[36] r[37] r[38] r[39] r[40] r[41]
 r[42] r[43] r[44] r[45] r[46] r[47] r[48] r[49] r[50] r[51] r[52] r[53]
 r[54] r[55] r[56] r[57] r[58] r[59]
End
